 time = [3600.0, 3600.0, 3600.0, 3601.0, 3600.0, 3600.0, 3600.0, 3600.0, 3600.0, 3600.0, 3185.0, 415.0, 1218.0, 323.0, 608.0, 1451.0, 1561.0, 1004.0, 1035.0, 1089.0, 2091.0, 304.0, 22.0, 94.0, 3600.0, 27.0, 482.0, 1432.0, 175.0, 1419.0, 65.0, 2804.0, 796.0, 3602.0, 3600.0, 2990.0, 59.0, 60.0, 60.0, 60.0, 60.0, 60.0, 60.0, 60.0, 60.0, 60.0, 60.0, 60.0, 60.0, 60.0, 60.0, 60.0, 60.0, 60.0, 60.0, 60.0, 60.0, 60.0, 60.0, 60.0, 60.0, 60.0, 60.0, 60.0, 60.0, 60.0, 60.0, 60.0, 60.0, 60.0, 60.0, 60.0, 60.0, 60.0, 60.0, 60.0, 60.0, 60.0, 60.0, 60.0, 60.0, 60.0, 60.0, 60.0, 60.0, 60.0, 60.0, 60.0, 60.0, 60.0, 60.0, 60.0, 60.0, 60.0, 60.0, 60.0, 60.0, 60.0, 60.0, 60.0, 60.0, 60.0, 60.0, 60.0, 60.0, 60.0, 60.0, 60.0, 60.0, 60.0, 60.0, 60.0, 60.0, 60.0, 60.0, 60.0, 60.0, 60.0, 5.0, 30.0, 2856.0, 3600.0]
 lat = [-34.86988, -34.86988, -34.86988, -34.86988, -34.86988, -34.86988, -34.86988, -34.86988, -34.86988, -34.86988, -34.86988, -34.86988, -34.86988, -34.86988, -34.86988, -34.86988, -34.86988, -34.86988, -34.86988, -34.86988, -34.86988, -34.86988, -34.86988, -34.86988, -34.86988, -34.86988, -34.86988, -34.86988, -34.86988, -34.86988, -34.86988, -34.86988, -34.86988, -34.86988, -34.86988, -34.86988, -34.86988, -34.86988, -34.86988, -34.86988, -34.86988, -34.86988, -34.86988, -34.86988, -34.86988, -34.86988, -34.86988, -34.86988, -34.86988, -34.86988, -34.86988, -34.86988, -34.86988, -34.86988, -34.86988, -34.86988, -34.86988, -34.86988, -34.86988, -34.86988, -34.86988, -34.86988, -34.86988, -34.86988, -34.86988, -34.86988, -34.86988, -34.86988, -34.86988, -34.86988, -34.86988, -34.86988, -34.86988, -34.86988, -34.86988, -34.86988, -34.86988, -34.86988, -34.86988, -34.86988, -34.86988, -34.86988, -34.86988, -34.86988, -34.86988, -34.86988, -34.86988, -34.86988, -34.86988, -34.86988, -34.86988, -34.86988, -34.86988, -34.86988, -34.86988, -34.86988, -34.86988, -34.86988, -34.86988, -34.86988, -34.86988, -34.86988, -34.86988, -34.86988, -34.86988, -34.86988, -34.86988, -34.86988, -34.86988, -34.86988, -34.86988, -34.86988, -34.86988, -34.86988, -34.86988, -34.86988, -34.86988, -34.86988, -34.86988, -34.86988, -34.86988, -34.86988, -34.86988]
 lon = [-56.284632, -56.284632, -56.284632, -56.284632, -56.284632, -56.284632, -56.284632, -56.284632, -56.284632, -56.284632, -56.284632, -56.284632, -56.284632, -56.284632, -56.284632, -56.284632, -56.284632, -56.284632, -56.284632, -56.284632, -56.284632, -56.284632, -56.284632, -56.284632, -56.284632, -56.284632, -56.284632, -56.284632, -56.284632, -56.284632, -56.284632, -56.284632, -56.284632, -56.284632, -56.284632, -56.284632, -56.284632, -56.284632, -56.284632, -56.284632, -56.284632, -56.284632, -56.284632, -56.284632, -56.284632, -56.284632, -56.284632, -56.284632, -56.284632, -56.284632, -56.284632, -56.284632, -56.284632, -56.284632, -56.284632, -56.284632, -56.284632, -56.284632, -56.284632, -56.284632, -56.284632, -56.284632, -56.284632, -56.284632, -56.284632, -56.284632, -56.284632, -56.284632, -56.284632, -56.284632, -56.284632, -56.284632, -56.284632, -56.284632, -56.284632, -56.284632, -56.284632, -56.284632, -56.284632, -56.284632, -56.284632, -56.284632, -56.284632, -56.284632, -56.284632, -56.284632, -56.284632, -56.284632, -56.284632, -56.284632, -56.284632, -56.284632, -56.284632, -56.284632, -56.284632, -56.284632, -56.284632, -56.284632, -56.284632, -56.284632, -56.284632, -56.284632, -56.284632, -56.284632, -56.284632, -56.284632, -56.284632, -56.284632, -56.284632, -56.284632, -56.284632, -56.284632, -56.284632, -56.284632, -56.284632, -56.284632, -56.284632, -56.284632, -56.284632, -56.284632, -56.284632, -56.284632, -56.284632]
 vel = [0, 0, 0, 0, 0, 0, 0, 0, 0, 0, 0, 0, 0, 0, 0, 0, 0, 0, 0, 0, 0, 0, 0, 0, 0, 0, 0, 0, 0, 0, 0, 0, 0, 0, 0, 0, 0, 0, 0, 0, 0, 0, 0, 0, 0, 0, 0, 0, 0, 0, 0, 0, 0, 0, 0, 0, 0, 0, 0, 0, 0, 0, 0, 0, 0, 0, 0, 0, 0, 0, 0, 0, 0, 0, 0, 0, 0, 0, 0, 0, 0, 0, 0, 0, 0, 0, 0, 0, 0, 0, 0, 0, 0, 0, 0, 0, 0, 0, 0, 0, 0, 0, 0, 0, 0, 0, 0, 0, 0, 0, 0, 0, 0, 0, 0, 0, 0, 0, 0, 0, 0, 0, 0]
 km = [0.0, 0.0, 0.0, 0.0, 0.0, 0.0, 0.0, 0.0, 0.0, 0.0, 0.0, 0.0, 0.0, 0.0, 0.0, 0.0, 0.0, 0.0, 0.0, 0.0, 0.0, 0.0, 0.0, 0.0, 0.0, 0.0, 0.0, 0.0, 0.0, 0.0, 0.0, 0.0, 0.0, 0.0, 0.0, 0.0, 0.0, 0.0, 0.0, 0.0, 0.0, 0.0, 0.0, 0.0, 0.0, 0.0, 0.0, 0.0, 0.0, 0.0, 0.0, 0.0, 0.0, 0.0, 0.0, 0.0, 0.0, 0.0, 0.0, 0.0, 0.0, 0.0, 0.0, 0.0, 0.0, 0.0, 0.0, 0.0, 0.0, 0.0, 0.0, 0.0, 0.0, 0.0, 0.0, 0.0, 0.0, 0.0, 0.0, 0.0, 0.0, 0.0, 0.0, 0.0, 0.0, 0.0, 0.0, 0.0, 0.0, 0.0, 0.0, 0.0, 0.0, 0.0, 0.0, 0.0, 0.0, 0.0, 0.0, 0.0, 0.0, 0.0, 0.0, 0.0, 0.0, 0.0, 0.0, 0.0, 0.0, 0.0, 0.0, 0.0, 0.0, 0.0, 0.0, 0.0, 0.0, 0.0, 0.0, 0.0, 0.0, 0.0, 0.0]
 dParams = [4.0, 0.1, 10.0, 60.0, 0.0001, 1.0]